200
1000
700
699
698
695
694
691
690
689
686
683
680
679
679
678
677
672
670
663
663
663
654
648
638
632
630
627
626
625
624
623
619
619
618
617
617
616
615
615
614
612
609
605
603
603
600
596
593
592
586
584
584
583
581
580
580
579
579
579
577
577
574
573
569
568
567
561
558
555
554
553
552
550
547
544
542
541
539
531
526
525
522
519
519
518
514
510
508
508
506
506
506
503
502
497
496
496
492
484
483
480
479
472
469
468
464
464
461
459
458
456
447
446
445
442
441
439
424
420
418
416
415
411
410
409
405
399
398
396
392
391
390
389
388
385
374
363
360
359
356
336
334
328
324
320
320
319
319
316
316
313
312
312
312
310
310
308
304
303
296
296
295
294
293
287
287
282
279
271
267
266
265
263
261
261
260
259
252
249
247
246
243
240
238
236
236
235
231
226
223
222
220
219
212
211
210
210
207
206
201
201
